(declare-fun C1 () Real)
(declare-fun C2 () Real)
(declare-fun C3 () Real)
(declare-fun C4 () Real)
(declare-fun C5 () Real)
(declare-fun C6 () Real)
(declare-fun C7 () Real)
(declare-fun C8 () Real)
(declare-fun C9 () Real)
(declare-fun C10 () Real)
(declare-fun y () Real)
(assert ( and ( or  (<=  (+  (* 1 C1)  (* 1 C2)  (* 1 C3)  (* 1 C4)  (* 1 C5)  (* 1 C6)  (* 1 C7)  (* 1 C8)  (* 1 C9)  (* 1 C10) ) 437 )  (<=  (+  (* 2 C1)  (* 1 C2)  (* 1 C3)  (* 1 C4)  (* 1 C5)  (* 1 C6)  (* 1 C7)  (* 1 C8)  (* 1 C9)  (* 1 C10) ) 464 )  (<=  (+  (* 2 C1)  (* 2 C2)  (* 1 C3)  (* 1 C4)  (* 1 C5)  (* 1 C6)  (* 1 C7)  (* 1 C8)  (* 1 C9)  (* 1 C10) ) 804 )  (<=  (+  (* 2 C1)  (* 2 C2)  (* 2 C3)  (* 1 C4)  (* 1 C5)  (* 1 C6)  (* 1 C7)  (* 1 C8)  (* 1 C9)  (* 1 C10) ) 874 )  (<=  (+  (* 3 C1)  (* 2 C2)  (* 2 C3)  (* 1 C4)  (* 1 C5)  (* 1 C6)  (* 1 C7)  (* 1 C8)  (* 1 C9)  (* 1 C10) ) 928 )  (<=  (+  (* 3 C1)  (* 3 C2)  (* 2 C3)  (* 1 C4)  (* 1 C5)  (* 1 C6)  (* 1 C7)  (* 1 C8)  (* 1 C9)  (* 1 C10) ) 1183 )  (<=  (+  (* 3 C1)  (* 3 C2)  (* 2 C3)  (* 2 C4)  (* 1 C5)  (* 1 C6)  (* 1 C7)  (* 1 C8)  (* 1 C9)  (* 1 C10) ) 1311 )  (<=  (+  (* 4 C1)  (* 3 C2)  (* 2 C3)  (* 2 C4)  (* 1 C5)  (* 1 C6)  (* 1 C7)  (* 1 C8)  (* 1 C9)  (* 1 C10) ) 1392 )  (<=  (+  (* 4 C1)  (* 4 C2)  (* 2 C3)  (* 2 C4)  (* 1 C5)  (* 1 C6)  (* 1 C7)  (* 1 C8)  (* 1 C9)  (* 1 C10) ) 1608 )  (<=  (+  (* 4 C1)  (* 4 C2)  (* 3 C3)  (* 2 C4)  (* 1 C5)  (* 1 C6)  (* 1 C7)  (* 1 C8)  (* 1 C9)  (* 1 C10) ) 1748 )  (<=  (+  (* 5 C1)  (* 4 C2)  (* 3 C3)  (* 2 C4)  (* 1 C5)  (* 1 C6)  (* 1 C7)  (* 1 C8)  (* 1 C9)  (* 1 C10) ) 1856 )  (<=  (+  (* 5 C1)  (* 5 C2)  (* 3 C3)  (* 2 C4)  (* 1 C5)  (* 1 C6)  (* 1 C7)  (* 1 C8)  (* 1 C9)  (* 1 C10) ) 2185 )  (<=  (+  (* 6 C1)  (* 5 C2)  (* 3 C3)  (* 2 C4)  (* 1 C5)  (* 1 C6)  (* 1 C7)  (* 1 C8)  (* 1 C9)  (* 1 C10) ) 2241 )  (<=  (+  (* 6 C1)  (* 5 C2)  (* 3 C3)  (* 2 C4)  (* 2 C5)  (* 1 C6)  (* 1 C7)  (* 1 C8)  (* 1 C9)  (* 1 C10) ) 2280 )  (<=  (+  (* 6 C1)  (* 5 C2)  (* 3 C3)  (* 2 C4)  (* 2 C5)  (* 2 C6)  (* 1 C7)  (* 1 C8)  (* 1 C9)  (* 1 C10) ) 2320 )  (<=  (+  (* 6 C1)  (* 6 C2)  (* 3 C3)  (* 2 C4)  (* 2 C5)  (* 2 C6)  (* 1 C7)  (* 1 C8)  (* 1 C9)  (* 1 C10) ) 2366 )  (<=  (+  (* 6 C1)  (* 6 C2)  (* 3 C3)  (* 3 C4)  (* 2 C5)  (* 2 C6)  (* 1 C7)  (* 1 C8)  (* 1 C9)  (* 1 C10) ) 2412 )  (<=  (+  (* 6 C1)  (* 6 C2)  (* 4 C3)  (* 3 C4)  (* 2 C5)  (* 2 C6)  (* 1 C7)  (* 1 C8)  (* 1 C9)  (* 1 C10) ) 2622 )  (<=  (+  (* 7 C1)  (* 6 C2)  (* 4 C3)  (* 3 C4)  (* 2 C5)  (* 2 C6)  (* 1 C7)  (* 1 C8)  (* 1 C9)  (* 1 C10) ) 2715 )  (<=  (+  (* 7 C1)  (* 6 C2)  (* 4 C3)  (* 3 C4)  (* 2 C5)  (* 2 C6)  (* 2 C7)  (* 1 C8)  (* 1 C9)  (* 1 C10) ) 2784 )  (<=  (+  (* 7 C1)  (* 7 C2)  (* 4 C3)  (* 3 C4)  (* 2 C5)  (* 2 C6)  (* 2 C7)  (* 1 C8)  (* 1 C9)  (* 1 C10) ) 3059 )  (<=  (+  (* 8 C1)  (* 7 C2)  (* 4 C3)  (* 3 C4)  (* 2 C5)  (* 2 C6)  (* 2 C7)  (* 1 C8)  (* 1 C9)  (* 1 C10) ) 3216 )  (<=  (+  (* 8 C1)  (* 7 C2)  (* 5 C3)  (* 3 C4)  (* 2 C5)  (* 2 C6)  (* 2 C7)  (* 1 C8)  (* 1 C9)  (* 1 C10) ) 3248 )  (<=  (+  (* 8 C1)  (* 8 C2)  (* 5 C3)  (* 3 C4)  (* 2 C5)  (* 2 C6)  (* 2 C7)  (* 1 C8)  (* 1 C9)  (* 1 C10) ) 3496 )  (<=  (+  (* 9 C1)  (* 8 C2)  (* 5 C3)  (* 3 C4)  (* 2 C5)  (* 2 C6)  (* 2 C7)  (* 1 C8)  (* 1 C9)  (* 1 C10) ) 3549 )  (<=  (+  (* 9 C1)  (* 8 C2)  (* 5 C3)  (* 4 C4)  (* 2 C5)  (* 2 C6)  (* 2 C7)  (* 1 C8)  (* 1 C9)  (* 1 C10) ) 3712 )  (<=  (+  (* 9 C1)  (* 9 C2)  (* 5 C3)  (* 4 C4)  (* 2 C5)  (* 2 C6)  (* 2 C7)  (* 1 C8)  (* 1 C9)  (* 1 C10) ) 3933 )  (<=  (+  (* 10 C1)  (* 9 C2)  (* 5 C3)  (* 4 C4)  (* 2 C5)  (* 2 C6)  (* 2 C7)  (* 1 C8)  (* 1 C9)  (* 1 C10) ) 4020 )  (<=  (+  (* 10 C1)  (* 9 C2)  (* 6 C3)  (* 4 C4)  (* 2 C5)  (* 2 C6)  (* 2 C7)  (* 1 C8)  (* 1 C9)  (* 1 C10) ) 4138 )  (<=  (+  (* 10 C1)  (* 9 C2)  (* 6 C3)  (* 4 C4)  (* 2 C5)  (* 2 C6)  (* 2 C7)  (* 2 C8)  (* 1 C9)  (* 1 C10) ) 4176 )  (<=  (+  (* 10 C1)  (* 10 C2)  (* 6 C3)  (* 4 C4)  (* 2 C5)  (* 2 C6)  (* 2 C7)  (* 2 C8)  (* 1 C9)  (* 1 C10) ) 4370 )  (<=  (+  (* 11 C1)  (* 10 C2)  (* 6 C3)  (* 4 C4)  (* 2 C5)  (* 2 C6)  (* 2 C7)  (* 2 C8)  (* 1 C9)  (* 1 C10) ) 4482 )  (<=  (+  (* 11 C1)  (* 10 C2)  (* 6 C3)  (* 4 C4)  (* 3 C5)  (* 2 C6)  (* 2 C7)  (* 2 C8)  (* 1 C9)  (* 1 C10) ) 4560 )  (<=  (+  (* 11 C1)  (* 10 C2)  (* 6 C3)  (* 4 C4)  (* 3 C5)  (* 3 C6)  (* 2 C7)  (* 2 C8)  (* 1 C9)  (* 1 C10) ) 4571 )  (<=  (+  (* 11 C1)  (* 10 C2)  (* 6 C3)  (* 4 C4)  (* 3 C5)  (* 3 C6)  (* 2 C7)  (* 2 C8)  (* 2 C9)  (* 1 C10) ) 4640 )  (<=  (+  (* 11 C1)  (* 11 C2)  (* 6 C3)  (* 4 C4)  (* 3 C5)  (* 3 C6)  (* 2 C7)  (* 2 C8)  (* 2 C9)  (* 1 C10) ) 4732 )  (<=  (+  (* 11 C1)  (* 11 C2)  (* 6 C3)  (* 5 C4)  (* 3 C5)  (* 3 C6)  (* 2 C7)  (* 2 C8)  (* 2 C9)  (* 1 C10) ) 4807 )  (<=  (+  (* 12 C1)  (* 11 C2)  (* 6 C3)  (* 5 C4)  (* 3 C5)  (* 3 C6)  (* 2 C7)  (* 2 C8)  (* 2 C9)  (* 1 C10) ) 4824 )  (<=  (+  (* 12 C1)  (* 11 C2)  (* 7 C3)  (* 5 C4)  (* 3 C5)  (* 3 C6)  (* 2 C7)  (* 2 C8)  (* 2 C9)  (* 1 C10) ) 4981 ) ) ( or  (<=  (+  (* 1 C1)  (* 1 C2)  (* 1 C3)  (* 1 C4)  (* 1 C5)  (* 1 C6)  (* 1 C7)  (* 1 C8)  (* 1 C9) ) 437 )  (<=  (+  (* 2 C1)  (* 1 C2)  (* 1 C3)  (* 1 C4)  (* 1 C5)  (* 1 C6)  (* 1 C7)  (* 1 C8)  (* 1 C9) ) 464 )  (<=  (+  (* 2 C1)  (* 2 C2)  (* 1 C3)  (* 1 C4)  (* 1 C5)  (* 1 C6)  (* 1 C7)  (* 1 C8)  (* 1 C9) ) 804 )  (<=  (+  (* 2 C1)  (* 2 C2)  (* 2 C3)  (* 1 C4)  (* 1 C5)  (* 1 C6)  (* 1 C7)  (* 1 C8)  (* 1 C9) ) 874 )  (<=  (+  (* 3 C1)  (* 2 C2)  (* 2 C3)  (* 1 C4)  (* 1 C5)  (* 1 C6)  (* 1 C7)  (* 1 C8)  (* 1 C9) ) 928 )  (<=  (+  (* 3 C1)  (* 3 C2)  (* 2 C3)  (* 1 C4)  (* 1 C5)  (* 1 C6)  (* 1 C7)  (* 1 C8)  (* 1 C9) ) 1183 )  (<=  (+  (* 3 C1)  (* 3 C2)  (* 2 C3)  (* 2 C4)  (* 1 C5)  (* 1 C6)  (* 1 C7)  (* 1 C8)  (* 1 C9) ) 1311 )  (<=  (+  (* 4 C1)  (* 3 C2)  (* 2 C3)  (* 2 C4)  (* 1 C5)  (* 1 C6)  (* 1 C7)  (* 1 C8)  (* 1 C9) ) 1392 )  (<=  (+  (* 4 C1)  (* 4 C2)  (* 2 C3)  (* 2 C4)  (* 1 C5)  (* 1 C6)  (* 1 C7)  (* 1 C8)  (* 1 C9) ) 1608 )  (<=  (+  (* 4 C1)  (* 4 C2)  (* 3 C3)  (* 2 C4)  (* 1 C5)  (* 1 C6)  (* 1 C7)  (* 1 C8)  (* 1 C9) ) 1748 )  (<=  (+  (* 5 C1)  (* 4 C2)  (* 3 C3)  (* 2 C4)  (* 1 C5)  (* 1 C6)  (* 1 C7)  (* 1 C8)  (* 1 C9) ) 1856 )  (<=  (+  (* 5 C1)  (* 5 C2)  (* 3 C3)  (* 2 C4)  (* 1 C5)  (* 1 C6)  (* 1 C7)  (* 1 C8)  (* 1 C9) ) 2185 )  (<=  (+  (* 6 C1)  (* 5 C2)  (* 3 C3)  (* 2 C4)  (* 1 C5)  (* 1 C6)  (* 1 C7)  (* 1 C8)  (* 1 C9) ) 2241 )  (<=  (+  (* 6 C1)  (* 5 C2)  (* 3 C3)  (* 2 C4)  (* 2 C5)  (* 1 C6)  (* 1 C7)  (* 1 C8)  (* 1 C9) ) 2280 )  (<=  (+  (* 6 C1)  (* 5 C2)  (* 3 C3)  (* 2 C4)  (* 2 C5)  (* 2 C6)  (* 1 C7)  (* 1 C8)  (* 1 C9) ) 2320 )  (<=  (+  (* 6 C1)  (* 6 C2)  (* 3 C3)  (* 2 C4)  (* 2 C5)  (* 2 C6)  (* 1 C7)  (* 1 C8)  (* 1 C9) ) 2366 )  (<=  (+  (* 6 C1)  (* 6 C2)  (* 3 C3)  (* 3 C4)  (* 2 C5)  (* 2 C6)  (* 1 C7)  (* 1 C8)  (* 1 C9) ) 2412 )  (<=  (+  (* 6 C1)  (* 6 C2)  (* 4 C3)  (* 3 C4)  (* 2 C5)  (* 2 C6)  (* 1 C7)  (* 1 C8)  (* 1 C9) ) 2622 )  (<=  (+  (* 7 C1)  (* 6 C2)  (* 4 C3)  (* 3 C4)  (* 2 C5)  (* 2 C6)  (* 1 C7)  (* 1 C8)  (* 1 C9) ) 2715 )  (<=  (+  (* 7 C1)  (* 6 C2)  (* 4 C3)  (* 3 C4)  (* 2 C5)  (* 2 C6)  (* 2 C7)  (* 1 C8)  (* 1 C9) ) 2784 )  (<=  (+  (* 7 C1)  (* 7 C2)  (* 4 C3)  (* 3 C4)  (* 2 C5)  (* 2 C6)  (* 2 C7)  (* 1 C8)  (* 1 C9) ) 3059 )  (<=  (+  (* 8 C1)  (* 7 C2)  (* 4 C3)  (* 3 C4)  (* 2 C5)  (* 2 C6)  (* 2 C7)  (* 1 C8)  (* 1 C9) ) 3216 )  (<=  (+  (* 8 C1)  (* 7 C2)  (* 5 C3)  (* 3 C4)  (* 2 C5)  (* 2 C6)  (* 2 C7)  (* 1 C8)  (* 1 C9) ) 3248 )  (<=  (+  (* 8 C1)  (* 8 C2)  (* 5 C3)  (* 3 C4)  (* 2 C5)  (* 2 C6)  (* 2 C7)  (* 1 C8)  (* 1 C9) ) 3496 )  (<=  (+  (* 9 C1)  (* 8 C2)  (* 5 C3)  (* 3 C4)  (* 2 C5)  (* 2 C6)  (* 2 C7)  (* 1 C8)  (* 1 C9) ) 3549 )  (<=  (+  (* 9 C1)  (* 8 C2)  (* 5 C3)  (* 4 C4)  (* 2 C5)  (* 2 C6)  (* 2 C7)  (* 1 C8)  (* 1 C9) ) 3712 )  (<=  (+  (* 9 C1)  (* 9 C2)  (* 5 C3)  (* 4 C4)  (* 2 C5)  (* 2 C6)  (* 2 C7)  (* 1 C8)  (* 1 C9) ) 3933 )  (<=  (+  (* 10 C1)  (* 9 C2)  (* 5 C3)  (* 4 C4)  (* 2 C5)  (* 2 C6)  (* 2 C7)  (* 1 C8)  (* 1 C9) ) 4020 )  (<=  (+  (* 10 C1)  (* 9 C2)  (* 6 C3)  (* 4 C4)  (* 2 C5)  (* 2 C6)  (* 2 C7)  (* 1 C8)  (* 1 C9) ) 4138 )  (<=  (+  (* 10 C1)  (* 9 C2)  (* 6 C3)  (* 4 C4)  (* 2 C5)  (* 2 C6)  (* 2 C7)  (* 2 C8)  (* 1 C9) ) 4176 )  (<=  (+  (* 10 C1)  (* 10 C2)  (* 6 C3)  (* 4 C4)  (* 2 C5)  (* 2 C6)  (* 2 C7)  (* 2 C8)  (* 1 C9) ) 4370 )  (<=  (+  (* 11 C1)  (* 10 C2)  (* 6 C3)  (* 4 C4)  (* 2 C5)  (* 2 C6)  (* 2 C7)  (* 2 C8)  (* 1 C9) ) 4482 )  (<=  (+  (* 11 C1)  (* 10 C2)  (* 6 C3)  (* 4 C4)  (* 3 C5)  (* 2 C6)  (* 2 C7)  (* 2 C8)  (* 1 C9) ) 4560 )  (<=  (+  (* 11 C1)  (* 10 C2)  (* 6 C3)  (* 4 C4)  (* 3 C5)  (* 3 C6)  (* 2 C7)  (* 2 C8)  (* 1 C9) ) 4571 ) ) ( or  (<=  (+  (* 1 C1)  (* 1 C2)  (* 1 C3)  (* 1 C4)  (* 1 C5)  (* 1 C6)  (* 1 C7)  (* 1 C8) ) 437 )  (<=  (+  (* 2 C1)  (* 1 C2)  (* 1 C3)  (* 1 C4)  (* 1 C5)  (* 1 C6)  (* 1 C7)  (* 1 C8) ) 464 )  (<=  (+  (* 2 C1)  (* 2 C2)  (* 1 C3)  (* 1 C4)  (* 1 C5)  (* 1 C6)  (* 1 C7)  (* 1 C8) ) 804 )  (<=  (+  (* 2 C1)  (* 2 C2)  (* 2 C3)  (* 1 C4)  (* 1 C5)  (* 1 C6)  (* 1 C7)  (* 1 C8) ) 874 )  (<=  (+  (* 3 C1)  (* 2 C2)  (* 2 C3)  (* 1 C4)  (* 1 C5)  (* 1 C6)  (* 1 C7)  (* 1 C8) ) 928 )  (<=  (+  (* 3 C1)  (* 3 C2)  (* 2 C3)  (* 1 C4)  (* 1 C5)  (* 1 C6)  (* 1 C7)  (* 1 C8) ) 1183 )  (<=  (+  (* 3 C1)  (* 3 C2)  (* 2 C3)  (* 2 C4)  (* 1 C5)  (* 1 C6)  (* 1 C7)  (* 1 C8) ) 1311 )  (<=  (+  (* 4 C1)  (* 3 C2)  (* 2 C3)  (* 2 C4)  (* 1 C5)  (* 1 C6)  (* 1 C7)  (* 1 C8) ) 1392 )  (<=  (+  (* 4 C1)  (* 4 C2)  (* 2 C3)  (* 2 C4)  (* 1 C5)  (* 1 C6)  (* 1 C7)  (* 1 C8) ) 1608 )  (<=  (+  (* 4 C1)  (* 4 C2)  (* 3 C3)  (* 2 C4)  (* 1 C5)  (* 1 C6)  (* 1 C7)  (* 1 C8) ) 1748 )  (<=  (+  (* 5 C1)  (* 4 C2)  (* 3 C3)  (* 2 C4)  (* 1 C5)  (* 1 C6)  (* 1 C7)  (* 1 C8) ) 1856 )  (<=  (+  (* 5 C1)  (* 5 C2)  (* 3 C3)  (* 2 C4)  (* 1 C5)  (* 1 C6)  (* 1 C7)  (* 1 C8) ) 2185 )  (<=  (+  (* 6 C1)  (* 5 C2)  (* 3 C3)  (* 2 C4)  (* 1 C5)  (* 1 C6)  (* 1 C7)  (* 1 C8) ) 2241 )  (<=  (+  (* 6 C1)  (* 5 C2)  (* 3 C3)  (* 2 C4)  (* 2 C5)  (* 1 C6)  (* 1 C7)  (* 1 C8) ) 2280 )  (<=  (+  (* 6 C1)  (* 5 C2)  (* 3 C3)  (* 2 C4)  (* 2 C5)  (* 2 C6)  (* 1 C7)  (* 1 C8) ) 2320 )  (<=  (+  (* 6 C1)  (* 6 C2)  (* 3 C3)  (* 2 C4)  (* 2 C5)  (* 2 C6)  (* 1 C7)  (* 1 C8) ) 2366 )  (<=  (+  (* 6 C1)  (* 6 C2)  (* 3 C3)  (* 3 C4)  (* 2 C5)  (* 2 C6)  (* 1 C7)  (* 1 C8) ) 2412 )  (<=  (+  (* 6 C1)  (* 6 C2)  (* 4 C3)  (* 3 C4)  (* 2 C5)  (* 2 C6)  (* 1 C7)  (* 1 C8) ) 2622 )  (<=  (+  (* 7 C1)  (* 6 C2)  (* 4 C3)  (* 3 C4)  (* 2 C5)  (* 2 C6)  (* 1 C7)  (* 1 C8) ) 2715 )  (<=  (+  (* 7 C1)  (* 6 C2)  (* 4 C3)  (* 3 C4)  (* 2 C5)  (* 2 C6)  (* 2 C7)  (* 1 C8) ) 2784 )  (<=  (+  (* 7 C1)  (* 7 C2)  (* 4 C3)  (* 3 C4)  (* 2 C5)  (* 2 C6)  (* 2 C7)  (* 1 C8) ) 3059 )  (<=  (+  (* 8 C1)  (* 7 C2)  (* 4 C3)  (* 3 C4)  (* 2 C5)  (* 2 C6)  (* 2 C7)  (* 1 C8) ) 3216 )  (<=  (+  (* 8 C1)  (* 7 C2)  (* 5 C3)  (* 3 C4)  (* 2 C5)  (* 2 C6)  (* 2 C7)  (* 1 C8) ) 3248 )  (<=  (+  (* 8 C1)  (* 8 C2)  (* 5 C3)  (* 3 C4)  (* 2 C5)  (* 2 C6)  (* 2 C7)  (* 1 C8) ) 3496 )  (<=  (+  (* 9 C1)  (* 8 C2)  (* 5 C3)  (* 3 C4)  (* 2 C5)  (* 2 C6)  (* 2 C7)  (* 1 C8) ) 3549 )  (<=  (+  (* 9 C1)  (* 8 C2)  (* 5 C3)  (* 4 C4)  (* 2 C5)  (* 2 C6)  (* 2 C7)  (* 1 C8) ) 3712 )  (<=  (+  (* 9 C1)  (* 9 C2)  (* 5 C3)  (* 4 C4)  (* 2 C5)  (* 2 C6)  (* 2 C7)  (* 1 C8) ) 3933 )  (<=  (+  (* 10 C1)  (* 9 C2)  (* 5 C3)  (* 4 C4)  (* 2 C5)  (* 2 C6)  (* 2 C7)  (* 1 C8) ) 4020 )  (<=  (+  (* 10 C1)  (* 9 C2)  (* 6 C3)  (* 4 C4)  (* 2 C5)  (* 2 C6)  (* 2 C7)  (* 1 C8) ) 4138 ) ) ( or  (<=  (+  (* 1 C1)  (* 1 C2)  (* 1 C3)  (* 1 C4)  (* 1 C5)  (* 1 C6)  (* 1 C7) ) 437 )  (<=  (+  (* 2 C1)  (* 1 C2)  (* 1 C3)  (* 1 C4)  (* 1 C5)  (* 1 C6)  (* 1 C7) ) 464 )  (<=  (+  (* 2 C1)  (* 2 C2)  (* 1 C3)  (* 1 C4)  (* 1 C5)  (* 1 C6)  (* 1 C7) ) 804 )  (<=  (+  (* 2 C1)  (* 2 C2)  (* 2 C3)  (* 1 C4)  (* 1 C5)  (* 1 C6)  (* 1 C7) ) 874 )  (<=  (+  (* 3 C1)  (* 2 C2)  (* 2 C3)  (* 1 C4)  (* 1 C5)  (* 1 C6)  (* 1 C7) ) 928 )  (<=  (+  (* 3 C1)  (* 3 C2)  (* 2 C3)  (* 1 C4)  (* 1 C5)  (* 1 C6)  (* 1 C7) ) 1183 )  (<=  (+  (* 3 C1)  (* 3 C2)  (* 2 C3)  (* 2 C4)  (* 1 C5)  (* 1 C6)  (* 1 C7) ) 1311 )  (<=  (+  (* 4 C1)  (* 3 C2)  (* 2 C3)  (* 2 C4)  (* 1 C5)  (* 1 C6)  (* 1 C7) ) 1392 )  (<=  (+  (* 4 C1)  (* 4 C2)  (* 2 C3)  (* 2 C4)  (* 1 C5)  (* 1 C6)  (* 1 C7) ) 1608 )  (<=  (+  (* 4 C1)  (* 4 C2)  (* 3 C3)  (* 2 C4)  (* 1 C5)  (* 1 C6)  (* 1 C7) ) 1748 )  (<=  (+  (* 5 C1)  (* 4 C2)  (* 3 C3)  (* 2 C4)  (* 1 C5)  (* 1 C6)  (* 1 C7) ) 1856 )  (<=  (+  (* 5 C1)  (* 5 C2)  (* 3 C3)  (* 2 C4)  (* 1 C5)  (* 1 C6)  (* 1 C7) ) 2185 )  (<=  (+  (* 6 C1)  (* 5 C2)  (* 3 C3)  (* 2 C4)  (* 1 C5)  (* 1 C6)  (* 1 C7) ) 2241 )  (<=  (+  (* 6 C1)  (* 5 C2)  (* 3 C3)  (* 2 C4)  (* 2 C5)  (* 1 C6)  (* 1 C7) ) 2280 )  (<=  (+  (* 6 C1)  (* 5 C2)  (* 3 C3)  (* 2 C4)  (* 2 C5)  (* 2 C6)  (* 1 C7) ) 2320 )  (<=  (+  (* 6 C1)  (* 6 C2)  (* 3 C3)  (* 2 C4)  (* 2 C5)  (* 2 C6)  (* 1 C7) ) 2366 )  (<=  (+  (* 6 C1)  (* 6 C2)  (* 3 C3)  (* 3 C4)  (* 2 C5)  (* 2 C6)  (* 1 C7) ) 2412 )  (<=  (+  (* 6 C1)  (* 6 C2)  (* 4 C3)  (* 3 C4)  (* 2 C5)  (* 2 C6)  (* 1 C7) ) 2622 )  (<=  (+  (* 7 C1)  (* 6 C2)  (* 4 C3)  (* 3 C4)  (* 2 C5)  (* 2 C6)  (* 1 C7) ) 2715 ) ) ( or  (<=  (+  (* 1 C1)  (* 1 C2)  (* 1 C3)  (* 1 C4)  (* 1 C5)  (* 1 C6) ) 437 )  (<=  (+  (* 2 C1)  (* 1 C2)  (* 1 C3)  (* 1 C4)  (* 1 C5)  (* 1 C6) ) 464 )  (<=  (+  (* 2 C1)  (* 2 C2)  (* 1 C3)  (* 1 C4)  (* 1 C5)  (* 1 C6) ) 804 )  (<=  (+  (* 2 C1)  (* 2 C2)  (* 2 C3)  (* 1 C4)  (* 1 C5)  (* 1 C6) ) 874 )  (<=  (+  (* 3 C1)  (* 2 C2)  (* 2 C3)  (* 1 C4)  (* 1 C5)  (* 1 C6) ) 928 )  (<=  (+  (* 3 C1)  (* 3 C2)  (* 2 C3)  (* 1 C4)  (* 1 C5)  (* 1 C6) ) 1183 )  (<=  (+  (* 3 C1)  (* 3 C2)  (* 2 C3)  (* 2 C4)  (* 1 C5)  (* 1 C6) ) 1311 )  (<=  (+  (* 4 C1)  (* 3 C2)  (* 2 C3)  (* 2 C4)  (* 1 C5)  (* 1 C6) ) 1392 )  (<=  (+  (* 4 C1)  (* 4 C2)  (* 2 C3)  (* 2 C4)  (* 1 C5)  (* 1 C6) ) 1608 )  (<=  (+  (* 4 C1)  (* 4 C2)  (* 3 C3)  (* 2 C4)  (* 1 C5)  (* 1 C6) ) 1748 )  (<=  (+  (* 5 C1)  (* 4 C2)  (* 3 C3)  (* 2 C4)  (* 1 C5)  (* 1 C6) ) 1856 )  (<=  (+  (* 5 C1)  (* 5 C2)  (* 3 C3)  (* 2 C4)  (* 1 C5)  (* 1 C6) ) 2185 )  (<=  (+  (* 6 C1)  (* 5 C2)  (* 3 C3)  (* 2 C4)  (* 1 C5)  (* 1 C6) ) 2241 )  (<=  (+  (* 6 C1)  (* 5 C2)  (* 3 C3)  (* 2 C4)  (* 2 C5)  (* 1 C6) ) 2280 ) ) ( or  (<=  (+  (* 1 C1)  (* 1 C2)  (* 1 C3)  (* 1 C4)  (* 1 C5) ) 437 )  (<=  (+  (* 2 C1)  (* 1 C2)  (* 1 C3)  (* 1 C4)  (* 1 C5) ) 464 )  (<=  (+  (* 2 C1)  (* 2 C2)  (* 1 C3)  (* 1 C4)  (* 1 C5) ) 804 )  (<=  (+  (* 2 C1)  (* 2 C2)  (* 2 C3)  (* 1 C4)  (* 1 C5) ) 874 )  (<=  (+  (* 3 C1)  (* 2 C2)  (* 2 C3)  (* 1 C4)  (* 1 C5) ) 928 )  (<=  (+  (* 3 C1)  (* 3 C2)  (* 2 C3)  (* 1 C4)  (* 1 C5) ) 1183 )  (<=  (+  (* 3 C1)  (* 3 C2)  (* 2 C3)  (* 2 C4)  (* 1 C5) ) 1311 )  (<=  (+  (* 4 C1)  (* 3 C2)  (* 2 C3)  (* 2 C4)  (* 1 C5) ) 1392 )  (<=  (+  (* 4 C1)  (* 4 C2)  (* 2 C3)  (* 2 C4)  (* 1 C5) ) 1608 )  (<=  (+  (* 4 C1)  (* 4 C2)  (* 3 C3)  (* 2 C4)  (* 1 C5) ) 1748 )  (<=  (+  (* 5 C1)  (* 4 C2)  (* 3 C3)  (* 2 C4)  (* 1 C5) ) 1856 )  (<=  (+  (* 5 C1)  (* 5 C2)  (* 3 C3)  (* 2 C4)  (* 1 C5) ) 2185 )  (<=  (+  (* 6 C1)  (* 5 C2)  (* 3 C3)  (* 2 C4)  (* 1 C5) ) 2241 ) ) ( or  (<=  (+  (* 1 C1)  (* 1 C2)  (* 1 C3)  (* 1 C4) ) 437 )  (<=  (+  (* 2 C1)  (* 1 C2)  (* 1 C3)  (* 1 C4) ) 464 )  (<=  (+  (* 2 C1)  (* 2 C2)  (* 1 C3)  (* 1 C4) ) 804 )  (<=  (+  (* 2 C1)  (* 2 C2)  (* 2 C3)  (* 1 C4) ) 874 )  (<=  (+  (* 3 C1)  (* 2 C2)  (* 2 C3)  (* 1 C4) ) 928 )  (<=  (+  (* 3 C1)  (* 3 C2)  (* 2 C3)  (* 1 C4) ) 1183 ) ) ( or  (<=  (+  (* 1 C1)  (* 1 C2)  (* 1 C3) ) 437 )  (<=  (+  (* 2 C1)  (* 1 C2)  (* 1 C3) ) 464 )  (<=  (+  (* 2 C1)  (* 2 C2)  (* 1 C3) ) 804 ) ) ( or  (<=  (+  (* 1 C1)  (* 1 C2) ) 437 )  (<=  (+  (* 2 C1)  (* 1 C2) ) 464 ) ) ( or  (<=  (* 1 C1)  437 ) )  (and (>= C1 4) (>= C2 4) (>= C3 8) (>= C4 11) (>= C5 22) (>= C6 22) (>= C7 27) (>= C8 41) (>= C9 45) (>= C10 49) )  (and (<= C1 184) (<= C2 195) (<= C3 338) (<= C4 498) (<= C5 944) (<= C6 960) (<= C7 1143) (<= C8 1743) (<= C9 1925) (<= C10 2098) ) (= y (+ (/ C1 437) (/ C2 464) (/ C3 804) (/ C4 1183) (/ C5 2241) (/ C6 2280) (/ C7 2715) (/ C8 4138) (/ C9 4571) (/ C10 4981) )) ))
(maximize y)
(check-sat)
